0 1920
1 1894
2 1764
3 1764
4 1715
5 1628
6 1610
7 1516
8 1497
9 1446
10 1427
11 1427
12 1379
13 1374
14 1338
15 1317
16 1288
17 1235
18 1214
19 1179
20 1148
21 1148
22 1139
23 1117
24 1092
25 1092
26 1080
27 1064
28 1050
29 1041
30 1019
31 1017
32 1016
33 1002
34 1002
35 997
36 984
37 975
38 973
39 969
40 967
41 965
42 957
43 957
44 951
45 947
46 944
47 944
48 944
49 941
50 941
51 939
52 939
53 937
54 937
55 930
56 928
57 928
58 925
59 925
60 894
61 894
62 886
63 883
64 878
65 878
66 878
67 873
68 873
69 873
70 873
71 873
72 873
73 873
74 873
75 873
76 873
77 873
78 873
79 873
80 873
81 873
82 873
83 873
84 873
85 873
86 873
87 873
88 873
89 873
90 873
91 873
92 873
93 873
94 873
95 873
96 873
97 873
98 873
99 873
100 873
101 873
102 873
103 873
104 873
105 873
106 873
107 873
108 873
109 873
110 873
111 873
112 873
113 873
114 873
115 873
116 873
117 873
118 873
119 873
120 873
121 873
122 873
123 873
124 873
125 873
126 873
127 873
128 873
129 873
130 873
131 873
132 873
133 873
134 873
135 873
136 873
137 873
138 873
139 873
140 873
141 873
142 873
143 873
144 873
145 873
146 873
147 873
148 873
149 873
150 873
151 873
152 873
153 873
154 873
155 873
156 873
157 873
158 873
159 873
160 873
161 873
162 873
163 873
164 873
165 873
166 873
167 873
168 873
169 873
170 873
171 873
172 873
173 873
174 873
175 873
176 873
177 873
178 873
179 873
180 873
181 873
182 873
183 873
184 873
185 873
186 873
187 873
188 873
189 873
190 873
191 873
192 873
193 873
194 873
195 873
196 873
197 873
198 873
199 873
200 873
201 873
202 873
203 873
204 873
205 873
206 873
207 873
208 873
209 873
210 873
211 873
212 873
213 873
214 873
215 873
216 873
217 873
218 873
219 873
220 873
221 873
222 873
223 873
224 873
225 873
226 873
227 873
228 873
229 873
230 873
231 873
232 873
233 873
234 873
235 873
236 873
237 873
238 873
239 873
240 873
241 873
242 873
243 873
244 873
245 873
246 873
247 873
248 873
249 873
250 873
251 873
252 873
253 873
254 873
255 873
256 873
257 873
258 873
259 873
260 873
261 873
262 873
263 873
264 873
265 873
266 873
267 873
268 873
269 873
270 873
271 873
272 873
273 873
274 873
275 873
276 873
277 873
278 873
279 873
280 873
281 873
282 873
283 873
284 873
285 873
286 873
287 873
288 873
289 873
290 873
291 873
292 873
293 873
294 873
295 873
296 873
297 873
298 873
299 873
300 873
301 873
302 873
303 873
304 873
305 873
306 873
307 873
308 873
309 873
310 873
311 873
312 873
313 873
314 873
315 873
316 873
317 873
318 873
319 873
320 873
321 873
322 873
323 873
324 873
325 873
326 873
327 873
328 873
329 873
330 873
331 873
332 873
333 873
334 873
335 873
336 873
337 873
338 873
339 873
340 873
341 873
342 873
343 873
344 873
345 873
346 873
347 873
348 873
349 873
350 873
351 873
352 873
353 873
354 873
355 873
356 873
357 873
358 873
359 873
360 873
361 873
362 873
363 873
364 873
365 873
366 873
367 873
368 873
369 873
370 873
371 873
372 873
373 873
374 873
375 873
376 873
377 873
378 873
379 873
380 873
381 873
382 873
383 873
384 873
385 873
386 873
387 873
388 873
389 873
390 873
391 873
392 873
393 873
394 873
395 873
396 873
397 873
398 873
399 873
400 873
401 873
402 873
403 873
404 873
405 873
406 873
407 873
408 873
409 873
410 873
411 873
412 873
413 873
414 873
415 873
416 873
417 873
418 873
419 873
420 873
421 873
422 873
423 873
424 873
425 873
426 873
427 873
428 873
429 873
430 873
431 873
432 873
433 873
434 873
435 873
436 873
437 873
438 873
439 873
440 873
441 873
442 873
443 873
444 873
445 873
446 873
447 873
448 873
449 873
450 873
451 873
452 873
453 873
454 873
455 873
456 873
457 873
458 873
459 873
460 873
461 873
462 873
463 873
464 873
465 873
466 873
467 873
468 873
469 873
470 873
471 873
472 873
473 873
474 873
475 873
476 873
477 873
478 873
479 873
480 873
481 873
482 873
483 873
484 873
485 873
486 873
487 873
488 873
489 873
490 873
491 873
492 873
493 873
494 873
495 873
496 873
497 873
498 873
499 873
500 873
501 873
502 873
503 873
504 873
505 873
506 873
507 873
508 873
509 873
510 873
511 873
512 873
513 873
514 873
515 873
516 873
517 873
518 873
519 873
520 873
521 873
522 873
523 873
524 873
525 873
526 873
527 873
528 873
529 873
530 873
531 873
532 873
533 873
534 873
535 873
536 873
537 873
538 873
539 873
540 873
541 873
542 873
543 873
544 873
545 873
546 873
547 873
548 873
549 873
550 873
551 873
552 873
553 873
554 873
555 873
556 873
557 873
558 873
559 873
560 873
561 873
562 873
563 873
564 873
565 873
566 873
567 873
568 873
569 873
570 873
571 873
572 873
573 873
574 873
575 873
576 873
577 873
578 873
579 873
580 873
581 873
582 873
583 873
584 873
585 873
586 873
587 873
588 873
589 873
590 873
591 873
592 873
593 873
594 873
595 873
596 873
597 873
598 873
599 873
600 873
601 873
602 873
603 873
604 873
605 873
606 873
607 873
608 873
609 873
610 873
611 873
612 873
613 873
614 873
615 873
616 873
617 873
618 873
619 873
620 873
621 873
622 873
623 873
624 873
625 873
626 873
627 873
628 873
629 873
630 873
631 873
632 873
633 873
634 873
635 873
636 873
637 873
638 873
639 873
640 873
641 873
642 873
643 873
644 873
645 873
646 873
647 873
648 873
649 873
650 873
651 873
652 873
653 873
654 873
655 873
656 873
657 873
658 873
659 873
660 873
661 873
662 873
663 873
664 873
665 873
666 873
667 873
668 873
669 873
670 873
671 873
672 873
673 873
674 873
675 873
676 873
677 873
678 873
679 873
680 873
681 873
682 873
683 873
684 873
685 873
686 873
687 873
688 873
689 873
690 873
691 873
692 873
693 873
694 873
695 873
696 873
697 873
698 873
699 873
700 873
701 873
702 873
703 873
704 873
705 873
706 873
707 873
708 873
709 873
710 873
711 873
712 873
713 873
714 873
715 873
716 873
717 873
718 873
719 873
720 873
721 873
722 873
723 873
724 873
725 873
726 873
727 873
728 873
729 873
730 873
731 873
732 873
733 873
734 873
735 873
736 873
737 873
738 873
739 873
740 873
741 873
742 873
743 873
744 873
745 873
746 873
747 873
748 873
749 873
750 873
751 873
752 873
753 873
754 873
755 873
756 873
757 873
758 873
759 873
760 873
761 873
762 873
763 873
764 873
765 873
766 873
767 873
768 873
769 873
770 873
771 873
772 873
773 873
774 873
775 873
776 873
777 873
778 873
779 873
780 873
781 873
782 873
783 873
784 873
785 873
786 873
787 873
788 873
789 873
790 873
791 873
792 873
793 873
794 873
795 873
796 873
797 873
798 873
799 873
800 873
801 873
802 873
803 873
804 873
805 873
806 873
807 873
808 873
809 873
810 873
811 873
812 873
813 873
814 873
815 873
816 873
817 873
818 873
819 873
820 873
821 873
822 873
823 873
824 873
825 873
826 873
827 873
828 873
829 873
830 873
831 873
832 873
833 873
834 873
835 873
836 873
837 873
838 873
839 873
840 873
841 873
842 873
843 873
844 873
845 873
846 873
847 873
848 873
849 873
850 873
851 873
852 873
853 873
854 873
855 873
856 873
857 873
858 873
859 873
860 873
861 873
862 873
863 873
864 873
865 873
866 873
867 873
868 873
869 873
870 873
871 873
872 873
873 873
874 873
875 873
876 873
877 873
878 873
879 873
880 873
881 873
882 873
883 873
884 873
885 873
886 873
887 873
888 873
889 873
890 873
891 873
892 873
893 873
894 873
895 873
896 873
897 873
898 873
899 873
900 873
901 873
902 873
903 873
904 873
905 873
906 873
907 873
908 873
909 873
910 873
911 873
912 873
913 873
914 873
915 873
916 873
917 873
918 873
919 873
920 873
921 873
922 873
923 873
924 873
925 873
926 873
927 873
928 873
929 873
930 873
931 873
932 873
933 873
934 873
935 873
936 873
937 873
938 873
939 873
940 873
941 873
942 873
943 873
944 873
945 873
946 873
947 873
948 873
949 873
950 873
951 873
952 873
953 873
954 873
955 873
956 873
957 873
958 873
959 873
960 873
961 873
962 873
963 873
964 873
965 873
966 873
967 873
968 873
969 873
970 873
971 873
972 873
973 873
974 873
975 873
976 873
977 873
978 873
979 873
980 873
981 873
982 873
983 873
984 873
985 873
986 873
987 873
988 873
989 873
990 873
991 873
992 873
993 873
994 873
995 873
996 873
997 873
998 873
999 873
Best: [[31,17,2,13],
       [25,15,29,9,19,10,23,16],
       [28,12,5,24,3,4,7],
       [27,8,14,18,20,32,22],
       [21,6,26,11,30]], fitness: 873
